n = 16;
k = 4;
% init = [[9], [8, 13, 4, 1, 10, 2, 11], [14, 3], [7, 5, 16, 6, 12, 15]];
% goal = [[9, 8, 4, 15, 6, 1, 13, 3, 12], [], [10, 14, 16, 5, 7, 11], [2]];
start = [10, 11, 0, 1, 16, 12, 5, 13, 0, 2, 0, 15, 4, 3, 0, 6];
end = [13, 0, 12, 15, 7, 1, 11, 4, 8, 14, 0, 0, 3, 16, 6, 5];
